; benchmark generated from python API
(set-info :status unknown)
(declare-fun S_1 () Real)
(declare-fun S_2 () Real)
(declare-fun S_3 () Real)
(declare-fun S_4 () Real)
(declare-fun A_2 () Real)
(declare-fun L_1 () Real)
(declare-fun A_4 () Real)
(declare-fun Q_4 () Real)
(declare-fun A_3 () Real)
(declare-fun A_1 () Real)
(declare-fun A_0 () Real)
(declare-fun L_0 () Real)
(declare-fun S_0 () Real)
(assert
 (let (($x1417 (>= Q_4 0.0)))
 (let ((?x143936 (* (- 6.0) A_3)))
 (let ((?x1784 (* (- 2.0) S_4)))
 (let ((?x1739 (* (- 2.0) L_0)))
 (let ((?x1373 (* 2.0 A_0)))
 (let ((?x140085 (* 6.0 A_4)))
 (let ((?x139742 (* (- 6.0) Q_4)))
 (let (($x143939 (<= (+ ?x139742 ?x140085 ?x1373 ?x1739 ?x1784 ?x143936) 0.0)))
 (let (($x5547 (<= (+ (* (- 1.0) Q_4) A_4 A_1 (* (- 1.0) A_2) (* (- 1.0) A_3)) 0.0)))
 (let ((?x836 (* (- 1.0) A_2)))
 (let ((?x1630 (* 2.0 A_1)))
 (let ((?x784 (* (- 1.0) L_1)))
 (let ((?x986 (* (- 1.0) A_0)))
 (let ((?x742 (* (- 1.0) Q_4)))
 (let (($x3845 (<= (+ ?x742 ?x986 L_0 ?x784 ?x1630 ?x836) 0.0)))
 (let ((?x3275 (* 3.0 A_1)))
 (let ((?x1292 (* (- 3.0) L_1)))
 (let ((?x1307 (* (- 1.0) S_4)))
 (let ((?x1707 (* 2.0 L_0)))
 (let ((?x1386 (* (- 2.0) A_0)))
 (let ((?x1338 (* (- 3.0) Q_4)))
 (let (($x3269 (<= (+ ?x1338 ?x1386 ?x1707 ?x1307 ?x1292 ?x3275) 0.0)))
 (let (($x3302 (<= (+ (* (- 2.0) Q_4) ?x986 L_0 ?x784 ?x1630 ?x836) 0.0)))
 (let (($x3260 (not $x3302)))
 (let (($x1909 (<= (+ A_3 ?x1307 ?x784) 0.0)))
 (let (($x143483 (not $x143939)))
 (let ((?x922 (* (- 1.0) A_3)))
 (let ((?x3914 (* (- (/ 1.0 3.0)) L_0)))
 (let ((?x3860 (* (/ 1.0 3.0) A_0)))
 (let ((?x2068 (* (- (/ 1.0 3.0)) S_4)))
 (let (($x24625 (<= (+ ?x2068 ?x3860 ?x3914 A_4 ?x922) 0.0)))
 (let (($x13079 (<= (+ ?x742 A_4 A_2 ?x1784 (* (- 2.0) L_1)) 0.0)))
 (let (($x10572 (<= (+ ?x742 A_4 (* 2.0 A_2) ?x1784 ?x986 L_0 ?x1292 A_1 ?x922) 0.0)))
 (let ((?x7158 (* (- 4.0) S_4)))
 (let ((?x775 (* (- 1.0) L_0)))
 (let ((?x1309 (* 3.0 A_4)))
 (let (($x7152 (<= (+ ?x1338 ?x1309 A_0 ?x775 ?x7158 ?x1292) 0.0)))
 (let (($x2667 (<= (+ ?x742 (* (- 1.0) A_4) ?x986 L_0 ?x784 A_1 A_3) 0.0)))
 (let ((?x22724 (* (- (/ 2.0 3.0)) A_3)))
 (let ((?x83772 (* (- (/ 1.0 3.0)) A_2)))
 (let ((?x2034 (* (/ 1.0 3.0) L_1)))
 (let ((?x24748 (* (/ 2.0 3.0) A_4)))
 (let ((?x83775 (* (/ 1.0 3.0) Q_4)))
 (let (($x10665 (<= (+ (* 2.0 A_4) A_0 ?x775 L_1 ?x836 (* (- 2.0) A_3)) 0.0)))
 (let (($x453466 (or $x1909 $x5547 $x7152 $x10572 (not $x10665) $x13079 (<= (+ ?x83775 ?x24748 ?x3860 ?x3914 ?x2034 ?x83772 ?x22724) 0.0))))
 (let (($x4199 (= Q_4 0.0)))
 (let (($x457859 (or (<= (+ (* (- 1.0) A_4) ?x836 S_4 L_1 A_3) 0.0) $x4199 $x5547 $x7152 $x10572 $x13079)))
 (let (($x2937 (<= (+ (* 3.0 A_2) ?x1784 ?x986 L_0 ?x1292) 0.0)))
 (let ((?x1383 (* 2.0 A_3)))
 (let ((?x1366 (* (- 3.0) A_4)))
 (let ((?x1365 (* 3.0 Q_4)))
 (let (($x58345 (<= (+ ?x1365 ?x1366 ?x1383 S_4 ?x1386 L_0 S_0 L_1 A_2) 0.0)))
 (let ((?x7636 (* (/ 1.0 2.0) S_4)))
 (let ((?x2505 (* (/ 1.0 2.0) L_0)))
 (let ((?x7342 (* (- (/ 3.0 2.0)) A_0)))
 (let ((?x1245 (* (- 1.0) A_4)))
 (let (($x44978 (<= (+ Q_4 ?x1245 ?x7342 ?x2505 ?x7636 S_0 L_1 A_2) 0.0)))
 (let ((?x1018 (* (- 1.0) A_1)))
 (let ((?x1379 (* (- 2.0) A_4)))
 (let ((?x1378 (* 2.0 Q_4)))
 (let (($x40248 (<= (+ ?x1378 ?x1379 A_3 S_4 L_1 ?x1018 A_2) 0.0)))
 (let ((?x5654 (* 4.0 A_2)))
 (let ((?x3235 (* (- 4.0) A_1)))
 (let ((?x1351 (* 4.0 L_1)))
 (let ((?x14472 (* 3.0 S_4)))
 (let ((?x1347 (* (- 4.0) A_4)))
 (let ((?x885 (* 4.0 Q_4)))
 (let (($x15378 (<= (+ ?x885 ?x1347 A_0 ?x775 ?x14472 ?x1351 ?x3235 ?x5654) 0.0)))
 (let (($x700 (= ?x784 ?x775)))
 (let (($x40419 (<= (+ ?x1365 ?x1379 (* 3.0 A_3) ?x784 A_1 L_0 ?x986 ?x836) 0.0)))
 (let ((?x1275 (* (- 3.0) A_3)))
 (let ((?x1357 (* 2.0 A_4)))
 (let ((?x1356 (* (- 2.0) Q_4)))
 (let (($x1141480 (or $x700 (<= (+ ?x1356 ?x1357 A_0 ?x775 L_1 ?x1018 A_2 ?x1275) 0.0) $x40248 $x40419 $x44978 $x58345)))
 (let (($x7183 (<= (+ ?x742 A_4 A_0 ?x775 L_1 (* (- 2.0) A_2)) 0.0)))
 (let (($x5364 (<= (+ ?x742 A_4 (* (- 1.0) S_3) ?x784 A_1 ?x922) 0.0)))
 (let (($x3042 (<= (+ ?x1378 A_2 A_0 ?x775 L_1 (* (- 2.0) A_1)) 0.0)))
 (let (($x3009 (not $x3042)))
 (let (($x2879 (<= (+ A_2 (* (- 1.0) S_3) ?x784) 0.0)))
 (let ((?x14574 (* (/ 1.0 2.0) L_1)))
 (let ((?x2444 (* (- (/ 1.0 2.0)) L_0)))
 (let ((?x2464 (* (/ 1.0 2.0) A_0)))
 (let ((?x2496 (* (/ 1.0 2.0) A_2)))
 (let (($x33329 (<= (+ ?x2496 ?x2464 ?x2444 ?x14574 ?x1018) 0.0)))
 (let (($x33360 (not $x33329)))
 (let ((?x2948 (* (- 2.0) A_2)))
 (let ((?x1361 (* (- 2.0) L_1)))
 (let ((?x6419 (* (- 3.0) S_3)))
 (let (($x16004 (<= (+ ?x1356 ?x1357 A_0 ?x775 ?x6419 ?x1361 ?x1630 ?x2948) 0.0)))
 (let (($x7150 (<= (+ ?x742 A_4 A_0 ?x775 (* (- 2.0) S_3) ?x784) 0.0)))
 (let (($x3248 (<= (+ ?x1356 ?x986 L_0 (* (- 1.0) S_3) ?x1361 ?x1630) 0.0)))
 (let (($x85161 (<= (+ A_0 ?x775 (* (- 1.0) S_3) (* (- 2.0) A_1) (* 2.0 A_2)) 0.0)))
 (let (($x40203 (<= (+ ?x1378 ?x1379 (* 3.0 A_3) ?x986 L_0 ?x784 A_1 ?x836) 0.0)))
 (let (($x15458 (<= (+ ?x742 A_4 ?x1307 ?x784 A_1 ?x836) 0.0)))
 (let (($x4610 (<= (+ ?x1338 ?x1309 ?x986 L_0 ?x1784 ?x1292 ?x3275 ?x1275) 0.0)))
 (let (($x3044 (<= (+ Q_4 A_2 A_0 ?x775 L_1 (* (- 2.0) A_1)) 0.0)))
 (let (($x2940 (<= (+ (* 2.0 A_2) ?x1307 ?x784 ?x1018) 0.0)))
 (let (($x7175 (<= (+ Q_4 ?x1245 A_0 ?x775 L_1 ?x3235 ?x5654) 0.0)))
 (let (($x3577 (<= (+ ?x775 L_1) 0.0)))
 (let (($x3182 (<= (+ ?x1245 A_3 ?x986 L_0 ?x784 A_1) 0.0)))
 (let (($x3011 (not $x2667)))
 (let (($x5674 (<= (+ A_0 ?x775 ?x1307 (* (- 3.0) A_2) (* 3.0 A_3)) 0.0)))
 (let (($x2931 (<= (+ ?x742 A_2 ?x1307 ?x986 L_0 ?x1361 A_1) 0.0)))
 (let (($x2933 (<= (+ ?x742 ?x1307 ?x784 A_3) 0.0)))
 (let (($x2888 (not $x2933)))
 (let (($x13035 (<= (+ Q_4 ?x1245 (* 2.0 A_2) ?x986 L_0 ?x784) 0.0)))
 (let (($x43932 (<= (+ ?x1378 ?x1379 A_3 ?x1386 S_3 L_0 S_0 L_1 A_2) 0.0)))
 (let ((?x22463 (+ Q_4 ?x1245 (* (- (/ 5.0 3.0)) A_0) (* (/ 2.0 3.0) L_0) (* (/ 2.0 3.0) S_3) S_0 L_1 A_2)))
 (let (($x22474 (<= ?x22463 0.0)))
 (let (($x1172319 (or $x3577 $x4199 (<= (+ Q_4 ?x1245 S_3 L_1 ?x1018 A_2) 0.0) $x22474 $x43932)))
 (let (($x58221 (<= (+ ?x742 ?x1245 L_1 ?x1018 S_3 A_2) 0.0)))
 (let (($x57509 (not $x58221)))
 (let (($x30129 (<= (+ L_1 ?x1245 ?x1018 S_3 A_2) 0.0)))
 (let (($x1697 (<= (+ (* 2.0 L_1) Q_4 ?x1245 ?x1018 S_3 S_0 ?x986 A_2) 0.0)))
 (let (($x14761 (not (<= (+ A_2 A_0 ?x775 (* (- 1.0) S_1) ?x1018) 0.0))))
 (let (($x3712 (<= (+ ?x1386 ?x1707 ?x1307 (* 3.0 S_1)) 0.0)))
 (let (($x1937 (<= (+ ?x1356 ?x1357 (* (- 2.0) A_3) A_0 ?x775 L_1 ?x836) 0.0)))
 (let (($x1134274 (or (not $x1937) $x1909 $x2937 $x3712 $x14761 (<= (+ (* (- (/ 1.0 2.0)) A_2) A_4 ?x2464 ?x2444 ?x14574 ?x922) 0.0))))
 (let ((?x3869 (* (/ 1.0 3.0) S_3)))
 (let ((?x3872 (* (/ 1.0 3.0) L_0)))
 (let (($x14105 (<= (+ Q_4 ?x1245 (* (- (/ 4.0 3.0)) A_0) ?x3872 ?x3869 S_0 L_1 A_3) 0.0)))
 (let ((?x1370 (* 3.0 A_3)))
 (let ((?x3262 (* (- 3.0) A_1)))
 (let ((?x1369 (* 3.0 L_1)))
 (let ((?x5441 (* 2.0 S_3)))
 (let (($x1152950 (or $x3577 $x4199 (<= (+ ?x1365 ?x1366 A_0 ?x775 ?x5441 ?x1369 ?x3262 ?x1370) 0.0) $x14105)))
 (let ((?x2495 (* (/ 1.0 2.0) S_3)))
 (let ((?x2503 (* (- (/ 1.0 2.0)) A_0)))
 (let ((?x2470 (* (/ 1.0 2.0) A_3)))
 (let ((?x2466 (* (/ 1.0 2.0) Q_4)))
 (let (($x2465 (not (<= (+ (* (- (/ 1.0 2.0)) Q_4) ?x1245 ?x2470 ?x2503 ?x2495 ?x2505 ?x2496) 0.0))))
 (let (($x1141502 (or $x2465 (<= (+ ?x2466 ?x1245 ?x2470 ?x2503 ?x2495 ?x2505 ?x2496) 0.0) $x3577 $x22474 (not (<= (+ A_4 (* (- 1.0) S_3) ?x784 A_1 ?x836) 0.0)) $x43932)))
 (let (($x1134167 (or (<= (+ ?x1378 A_3 A_0 ?x775 L_1 ?x1018 ?x836) 0.0) $x4610 (not (<= (+ Q_4 A_4 A_0 ?x775 L_1 ?x1018 ?x922) 0.0)) $x5674 $x7152 $x13079 (<= (+ ?x2466 (* (/ 1.0 2.0) A_4) ?x2496 ?x922) 0.0))))
 (let (($x7144 (not $x7183)))
 (let (($x5680 (<= (+ ?x1245 ?x836 ?x1383) 0.0)))
 (let (($x1142144 (or $x3302 $x4610 $x5680 $x7144 $x7152 (<= (+ ?x2948 A_4 A_0 ?x775 L_1) 0.0))))
 (let (($x1130925 (or $x2940 (<= (+ ?x742 A_2 ?x986 L_0 ?x784 A_1 ?x922) 0.0) $x3302 $x4610 (not (<= (+ ?x1356 ?x986 L_0 ?x784 A_1 A_2 ?x922) 0.0)) $x7152)))
 (let (($x7148 (not $x7175)))
 (let (($x5017 (<= (+ ?x1356 ?x986 L_0 ?x784 A_1 A_2 ?x922) 0.0)))
 (let (($x13128 (<= (+ Q_4 ?x1245 ?x836 S_3 ?x986 S_0 (* 2.0 L_1) A_3) 0.0)))
 (let (($x6994 (<= (+ Q_4 ?x1245 ?x2948 ?x5441 A_0 ?x775 ?x1369 ?x1018 A_3) 0.0)))
 (let (($x1135515 (or $x3044 $x3269 $x4610 $x7183 $x33360 (<= (+ Q_4 ?x1245 A_3 ?x784 A_1 L_0 ?x986) 0.0))))
 (let (($x7435 (<= (+ Q_4 ?x1245 ?x7342 ?x2505 (* (/ 1.0 2.0) S_2) S_0 L_1 A_3) 0.0)))
 (let (($x6260 (<= (+ Q_4 ?x1245 S_2 L_1 ?x1018 A_3) 0.0)))
 (let (($x11385 (<= (+ ?x1378 ?x1379 ?x836 S_4 ?x1386 (* 2.0 S_0) ?x1369 ?x1383) 0.0)))
 (let (($x11159 (<= (+ Q_4 ?x1245 ?x836 S_4 A_0 ?x775 (* 2.0 L_1) ?x1018 A_3) 0.0)))
 (let ((?x7245 (* (/ 1.0 4.0) S_4)))
 (let ((?x7565 (* (/ 1.0 4.0) L_0)))
 (let (($x7682 (<= (+ Q_4 ?x1245 (* (- (/ 5.0 4.0)) A_0) ?x7565 ?x7245 S_0 L_1 A_3) 0.0)))
 (let ((?x1659 (* (- 2.0) A_1)))
 (let ((?x1382 (* 2.0 L_1)))
 (let (($x1137606 (or $x3577 $x4199 (<= (+ ?x1378 ?x1379 A_0 ?x775 S_4 ?x1382 ?x1659 ?x1383) 0.0) $x7682)))
 (let (($x7698 (<= (+ (* (/ 3.0 4.0) A_0) (* (- (/ 3.0 4.0)) L_0) ?x7245 L_1 ?x1018) 0.0)))
 (let ((?x2077 (* (/ 1.0 3.0) S_4)))
 (let ((?x6774 (+ (* (/ 4.0 3.0) L_1) Q_4 ?x1245 (* (- (/ 1.0 3.0)) A_1) ?x2077 S_0 ?x986 A_3)))
 (let (($x1142993 (or $x3577 (<= (+ (* (/ 2.0 3.0) A_0) (* (- (/ 2.0 3.0)) L_0) ?x3869 L_1 ?x1018) 0.0) $x4199 $x13128)))
 (let (($x1718 (<= (+ L_1 Q_4 S_0 ?x986) 0.0)))
 (let (($x1722 (<= (+ L_1 S_0 ?x986) 0.0)))
 (let (($x1653 (not $x1722)))
 (let ((?x2938 (* 2.0 A_2)))
 (let ((?x2280 (* 3.0 S_2)))
 (let (($x1856 (<= (+ ?x1378 ?x1379 ?x1383 ?x986 L_0 S_2) 0.0)))
 (let (($x456809 (or $x700 $x1856 $x4199 (<= (+ ?x1378 ?x1379 ?x986 L_0 ?x2280 ?x1382 ?x1659 ?x2938) 0.0) (<= (+ Q_4 ?x1245 ?x1386 L_0 S_2 S_0 L_1 A_2) 0.0))))
 (let (($x14623 (<= (+ (* (- (/ 3.0 2.0)) L_1) (* (/ 3.0 2.0) A_1) (* (- (/ 1.0 2.0)) S_3) L_0 ?x986) 0.0)))
 (let ((?x14560 (* (- (/ 1.0 2.0)) A_1)))
 (let ((?x14588 (* (/ 3.0 2.0) L_1)))
 (let (($x438774 (or $x700 $x4199 (<= (+ ?x14588 Q_4 ?x1245 ?x14560 ?x2495 S_0 ?x986 A_3) 0.0) (not $x14623))))
 (let (($x1919 (<= (+ Q_4 ?x1245 A_3 ?x986 L_0 S_1) 0.0)))
 (let (($x2815 (<= (+ Q_4 ?x836 S_3 A_0 ?x775 ?x1382 ?x1018) 0.0)))
 (let (($x1148166 (or $x1722 $x2815 (not (<= (+ ?x836 S_3 A_0 ?x775 ?x1382 ?x1018) 0.0)))))
 (let (($x30754 (<= (+ A_2 ?x1307 ?x1357 ?x1292 (* (- 2.0) S_0) ?x1373 (* (- 2.0) A_3)) 0.0)))
 (let (($x104075 (<= (+ (* 2.0 S_4) A_0 ?x775 ?x1366 ?x1369 ?x3262 (* 3.0 A_2)) 0.0)))
 (let (($x15644 (<= (+ A_3 ?x1245) 0.0)))
 (let (($x1145052 (or $x3577 $x15644 (<= (+ ?x1369 ?x1018 S_4 ?x1379 (* 2.0 S_0) ?x1386 ?x2938) 0.0) $x104075)))
 (let (($x1702 (<= (+ ?x1369 Q_4 ?x1245 ?x1659 (* 2.0 S_2) S_0 ?x986 A_2) 0.0)))
 (let ((?x83735 (* (/ 2.0 3.0) A_2)))
 (let ((?x1359 (* (- 1.0) S_3)))
 (let ((?x2108 (* (/ 2.0 3.0) S_4)))
 (let ((?x39059 (* (- (/ 2.0 3.0)) Q_4)))
 (let (($x85558 (<= (+ ?x39059 ?x22724 ?x2108 ?x3860 ?x1359 ?x3914 ?x83735) 0.0)))
 (let ((?x14604 (* (/ 1.0 2.0) A_1)))
 (let ((?x14602 (* (- (/ 1.0 2.0)) L_1)))
 (let ((?x2494 (* (- (/ 1.0 2.0)) A_3)))
 (let ((?x2442 (* (- (/ 1.0 2.0)) Q_4)))
 (let (($x1927 (<= (+ ?x742 A_4 ?x922 A_0 ?x775 L_1 ?x1018) 0.0)))
 (let (($x1118331 (or $x1927 $x2879 $x4199 $x5364 (<= (+ ?x2442 ?x2494 ?x7636 ?x14602 ?x14604 ?x1359 ?x2496) 0.0) $x85558)))
 (let (($x39425 (<= (+ ?x1361 ?x742 A_4 A_1 ?x1307 (* (- 1.0) S_1) A_0 ?x836) 0.0)))
 (let ((?x1708 (* (- 3.0) A_2)))
 (let ((?x1342 (* (- 3.0) S_1)))
 (let ((?x1391 (* 5.0 A_0)))
 (let (($x39270 (<= (+ ?x1338 ?x1309 ?x1391 ?x1739 ?x1784 ?x1342 ?x1292 ?x1708) 0.0)))
 (let (($x28764 (<= (+ ?x2442 (* (/ 1.0 2.0) A_4) ?x2496 ?x1307 ?x784) 0.0)))
 (let (($x20068 (<= (+ ?x1292 ?x1356 ?x1357 A_1 (* (- 3.0) S_4)) 0.0)))
 (let (($x13962 (<= (+ ?x742 A_4 A_2 ?x1307 A_0 (* (- 1.0) S_1) ?x1361 ?x922) 0.0)))
 (let ((?x1362 (* (- 2.0) A_3)))
 (let ((?x1360 (* (- 2.0) S_1)))
 (let (($x2101 (<= (+ ?x784 ?x742 (* (- 1.0) S_1) A_0) 0.0)))
 (let (($x1335 (<= (+ ?x1338 ?x1309 (* 4.0 A_0) ?x775 ?x1307 ?x1342 ?x1292 ?x1275) 0.0)))
 (let (($x446497 (or $x1335 $x1909 $x2101 $x7152 (<= (+ ?x1292 ?x1356 ?x1357 A_1 ?x1307 ?x1360 ?x1373 ?x1362) 0.0) $x13962 $x20068 $x28764 $x39270 $x39425)))
 (let ((?x2534 (* (/ 3.0 2.0) A_3)))
 (let ((?x14631 (* (- (/ 3.0 2.0)) A_1)))
 (let ((?x31514 (* (- (/ 3.0 2.0)) A_4)))
 (let (($x24765 (<= (+ ?x986 ?x1245 S_0 L_1 A_3) 0.0)))
 (let (($x411713 (or $x700 $x15644 $x24765 (<= (+ ?x7636 A_0 ?x775 ?x31514 ?x14588 ?x14631 ?x2534) 0.0))))
 (let (($x41284 (<= (+ ?x14604 ?x7636 (* (- (/ 1.0 2.0)) A_4) ?x1359 (* (/ 1.0 2.0) S_0) ?x2503 ?x2470) 0.0)))
 (let (($x32866 (<= (+ S_4 A_0 ?x775 ?x1245 ?x1359 L_1 ?x1018 A_3) 0.0)))
 (let ((?x3871 (* (- (/ 1.0 3.0)) A_0)))
 (let ((?x24743 (+ ?x2108 ?x3871 ?x3914 (* (- (/ 2.0 3.0)) A_4) ?x1359 (* (/ 2.0 3.0) S_0) (* (/ 2.0 3.0) L_1) (* (/ 2.0 3.0) A_3))))
 (let (($x24711 (<= ?x24743 0.0)))
 (let ((?x1375 (* (- 1.0) S_1)))
 (let ((?x1693 (* (- 2.0) S_3)))
 (let (($x39252 (<= (+ ?x742 A_4 ?x1373 ?x775 ?x1359 ?x1375 ?x784 ?x836) 0.0)))
 (let (($x7181 (<= (+ ?x742 A_4 (* 3.0 A_0) (* (- 3.0) L_0) ?x1369 ?x3235) 0.0)))
 (let (($x1364 (<= (+ ?x1356 ?x1357 (* 3.0 A_0) ?x775 ?x1359 ?x1360 ?x1361 ?x1362) 0.0)))
 (let (($x1128613 (or $x1364 $x2101 $x2879 $x7181 (<= (+ ?x1361 ?x742 A_4 A_1 ?x1359 ?x1375 A_0 ?x922) 0.0) (<= (+ ?x1292 ?x742 A_4 ?x1630 ?x6419) 0.0) $x39252 (<= (+ ?x1292 ?x742 A_4 ?x1630 ?x1693 ?x1375 A_0 ?x836) 0.0))))
 (let (($x14696 (<= (+ ?x2442 (* (/ 1.0 2.0) A_4) ?x2496 ?x922) 0.0)))
 (let (($x3726 (<= (+ ?x986 L_0 (* 2.0 S_1) L_1 ?x836) 0.0)))
 (let (($x2912 (<= (+ A_2 ?x1307 ?x986 L_0 S_1 ?x784) 0.0)))
 (let ((?x2452 (* (- (/ 1.0 2.0)) A_2)))
 (let ((?x14621 (* (/ 3.0 2.0) A_1)))
 (let ((?x14556 (* (- (/ 3.0 2.0)) L_1)))
 (let ((?x7668 (* (- (/ 1.0 2.0)) S_4)))
 (let (($x4021 (<= (+ ?x1378 ?x922 S_4 ?x1373 ?x1739 ?x1369 ?x3262 A_2) 0.0)))
 (let (($x1901 (<= (+ ?x1356 ?x1357 ?x1362 A_0 ?x1359 ?x775) 0.0)))
 (let (($x487275 (or $x1901 $x2879 $x4021 (<= (+ ?x2466 ?x2470 ?x7668 ?x14556 ?x14621 L_0 ?x986 ?x2452) 0.0) $x85558)))
 (let (($x55441 (<= (+ ?x1378 ?x1379 A_3 S_4 ?x1382 ?x1018 S_0 ?x986 A_2) 0.0)))
 (let (($x1726 (<= (+ ?x784 Q_4 ?x1245 ?x1630 S_0 ?x1707 (* (- 3.0) A_0) A_2) 0.0)))
 (let (($x1115237 (or $x1726 $x1927 $x3577 $x4199 $x55441 (<= (+ ?x2466 ?x1245 ?x2470 ?x7636 ?x14574 ?x14560 ?x2496) 0.0))))
 (let ((?x1633 (* 3.0 A_2)))
 (let ((?x1380 (* (- 3.0) A_0)))
 (let ((?x1649 (* 2.0 S_4)))
 (let (($x1680 (<= (+ (* 5.0 L_1) ?x1365 ?x1366 ?x1659 ?x1649 (* 3.0 S_0) ?x1380 ?x1633) 0.0)))
 (let (($x43502 (<= (+ ?x7636 ?x1386 ?x2505 ?x31514 (* (/ 3.0 2.0) S_0) ?x14588 (* (/ 3.0 2.0) A_2)) 0.0)))
 (let (($x1113386 (or $x1909 $x2940 $x3269 $x4199 (<= (+ ?x742 A_3 ?x1307 ?x986 L_0 ?x1361 ?x1630 ?x836) 0.0) $x15458 $x143939)))
 (let (($x1121824 (or $x700 $x4199 (<= (+ ?x2464 ?x2444 (* (/ 1.0 2.0) S_2) L_1 ?x1018) 0.0) (<= (+ ?x1382 Q_4 ?x1245 ?x1018 S_2 S_0 ?x986 A_3) 0.0))))
 (let (($x2785 (<= (+ ?x742 (* (- 1.0) S_2) ?x784 A_1) 0.0)))
 (let (($x35332 (<= (+ ?x1356 ?x1357 ?x922 ?x1307 ?x1373 ?x775 ?x1375 ?x784 ?x836) 0.0)))
 (let (($x34727 (<= (+ ?x14556 ?x14621 ?x7668 L_0 ?x986) 0.0)))
 (let (($x14463 (<= (+ ?x2442 (* (/ 1.0 2.0) A_4) ?x2452 A_0 (* (- 1.0) S_2) ?x775) 0.0)))
 (let (($x1699 (<= (+ ?x784 A_1 (* (- 1.0) S_2)) 0.0)))
 (let (($x1377 (<= (+ ?x742 A_4 ?x1373 ?x775 (* (- 1.0) S_2) ?x1375 ?x784 ?x922) 0.0)))
 (let (($x43883 (<= (+ Q_4 A_3 ?x1307 S_2 ?x836) 0.0)))
 (let (($x24571 (<= (+ (* (- (/ 2.0 3.0)) S_4) ?x3871 ?x3872 S_2) 0.0)))
 (let (($x3244 (<= (+ ?x1378 A_0 ?x775 S_2 ?x1382 ?x1659) 0.0)))
 (let (($x520909 (or $x1909 $x3244 (<= (+ ?x2503 ?x2505 (* (/ 1.0 2.0) S_2) A_2 ?x922) 0.0) $x24571 $x43883 (<= (+ Q_4 A_3 ?x784 A_1 (* (- 1.0) S_2) ?x836) 0.0))))
 (let (($x35218 (<= (+ ?x1649 ?x1379 A_0 ?x1359 ?x775 ?x1382 ?x1659 ?x2938) 0.0)))
 (let (($x21945 (<= (+ S_4 ?x1245 A_2 ?x1359) 0.0)))
 (let (($x506138 (or $x1909 $x2785 $x4610 $x7152 $x15458 (<= (+ ?x2496 ?x2464 (* (- 1.0) S_2) ?x2444 ?x14602) 0.0))))
 (let ((?x1771 (* (- 2.0) S_2)))
 (let ((?x1358 (* 3.0 A_0)))
 (let (($x7138 (<= (+ ?x742 A_4 ?x1358 (* (- 3.0) L_0) (* (- 4.0) S_2) ?x784) 0.0)))
 (let (($x500787 (or $x1377 $x1699 $x2101 $x7138 (<= (+ ?x742 A_4 ?x1358 ?x1739 ?x1771 ?x1375 ?x784 ?x836) 0.0))))
 (let (($x22610 (not (<= (+ ?x2464 ?x2495 ?x2444 L_1 ?x1018) 0.0))))
 (let (($x2048 (<= (+ (* (- (/ 2.0 3.0)) L_1) (* (/ 2.0 3.0) A_1) ?x2077 ?x1359) 0.0)))
 (let (($x1893 (<= (+ ?x742 A_4 ?x922 A_0 ?x775 (* (- 1.0) S_2)) 0.0)))
 (let (($x463201 (or $x1699 $x1893 (<= (+ ?x2442 ?x2494 ?x2464 ?x2495 ?x2444 (* (- 1.0) S_2) ?x2496) 0.0))))
 (let (($x34996 (<= (+ S_4 ?x1245 A_0 ?x775 (* (- 1.0) S_2) L_1 ?x1018 A_2) 0.0)))
 (let ((?x32222 (* (/ 1.0 2.0) S_0)))
 (let ((?x1374 (* (- 1.0) S_2)))
 (let ((?x14429 (* (- (/ 1.0 2.0)) A_4)))
 (let (($x384801 (or $x700 $x1699 (<= (+ ?x7636 ?x14429 ?x2444 ?x1374 ?x32222 ?x14574 ?x2496) 0.0) $x34996)))
 (let (($x384799 (or $x700 $x1699 $x11159 (<= (+ ?x836 S_4 ?x1245 ?x1374 ?x775 S_0 ?x1382 A_3) 0.0))))
 (let ((?x83725 (* (/ 1.0 3.0) A_2)))
 (let ((?x3882 (* (- (/ 2.0 3.0)) L_0)))
 (let ((?x3880 (* (/ 2.0 3.0) A_0)))
 (let ((?x22979 (* (- (/ 1.0 3.0)) A_3)))
 (let ((?x39068 (* (- (/ 1.0 3.0)) Q_4)))
 (let (($x3619 (not $x4199)))
 (let (($x1165825 (or $x1335 $x1909 $x2101 $x2940 $x3619 $x3845 $x7152 (<= (+ ?x1358 ?x775 A_4 ?x1360 ?x784 ?x2948) 0.0))))
 (let (($x2569 (<= (+ ?x1378 ?x836 S_4 ?x1373 ?x1739 ?x1369 ?x1659) 0.0)))
 (let (($x2333 (<= (+ L_1 Q_4 S_2 ?x836) 0.0)))
 (let (($x2281 (<= (+ ?x1369 Q_4 ?x1245 ?x1659 ?x2280) 0.0)))
 (let (($x1151036 (or $x2879 $x4199 (<= (+ ?x922 S_4 A_1 ?x1359) 0.0) (<= (+ ?x922 S_4 ?x2464 (* (- (/ 1.0 2.0)) S_3) ?x2444 L_1) 0.0))))
 (let (($x15483 (<= (+ ?x742 A_4 ?x1373 ?x1739 (* (- 3.0) S_2) ?x784 A_1 ?x836) 0.0)))
 (let (($x5196 (<= (+ ?x742 A_4 A_0 ?x775 ?x1771 ?x784 A_1 ?x922) 0.0)))
 (let (($x5542 (<= (+ Q_4 ?x1245 ?x986 L_0 (* 2.0 S_1) L_1 ?x1018 A_3) 0.0)))
 (let (($x477714 (or $x3577 $x4199 $x5542 (<= (+ Q_4 ?x1245 ?x1386 L_0 S_1 S_0 L_1 A_3) 0.0))))
 (let (($x27065 (<= (+ Q_4 ?x1245 ?x1380 ?x1707 (* 2.0 S_1) S_0 L_1 A_2) 0.0)))
 (let (($x15818 (<= (+ Q_4 ?x1245 ?x1386 ?x1707 (* 3.0 S_1) L_1 ?x1018 A_2) 0.0)))
 (let (($x35189 (<= (+ A_3 ?x1307 ?x2503 ?x2505 (* (/ 1.0 2.0) S_2) ?x784 A_1 ?x836) 0.0)))
 (let (($x7390 (<= (+ ?x2503 ?x2505 ?x1307 (* (/ 3.0 2.0) S_2)) 0.0)))
 (let (($x372850 (or $x700 $x1718 $x4199 (<= (+ Q_4 ?x922 S_4 A_0 ?x775 ?x1382 ?x1018) 0.0))))
 (let (($x475166 (or (not (<= (+ Q_4 ?x1245 A_3 ?x1018 A_2) 0.0)) $x1909 $x2101 $x2937 $x7152)))
 (let (($x38686 (<= (+ A_3 ?x1307 ?x986 L_0 S_1 ?x784 A_1 ?x836) 0.0)))
 (let (($x481887 (or $x2785 $x3577 (<= (+ ?x922 A_0 S_3 ?x775 ?x1374 L_1 ?x1018 A_2) 0.0) (<= (+ ?x2494 ?x2495 ?x2444 ?x1374 ?x32222 ?x14574 ?x2496) 0.0))))
 (let (($x4419 (<= (+ ?x922 A_2) 0.0)))
 (let (($x3401 (not $x3845)))
 (let (($x455059 (or $x3009 $x3401 $x4419 (<= (+ ?x986 L_0 S_2 A_1 ?x922) 0.0) $x35189)))
 (let (($x25025 (<= (+ ?x2503 ?x2505 (* (/ 1.0 2.0) S_2) A_1 ?x836) 0.0)))
 (let ((?x21832 (* (/ 1.0 3.0) A_3)))
 (let ((?x24733 (* (/ 1.0 3.0) S_0)))
 (let ((?x24731 (* (- (/ 1.0 3.0)) A_4)))
 (let (($x368976 (or $x700 $x1699 (<= (+ ?x2077 ?x3860 ?x3882 ?x24731 ?x1374 ?x24733 ?x2034 ?x21832) 0.0) (<= (+ ?x7636 A_0 ?x775 ?x14429 ?x1374 ?x14574 ?x14560 ?x2470) 0.0))))
 (let (($x3006 (<= (+ Q_4 S_1 L_1 ?x1018) 0.0)))
 (let (($x1115053 (or $x1909 $x2940 $x3006 $x3712 (<= (+ Q_4 A_3 ?x1307 ?x986 L_0 (* 2.0 S_1) ?x836) 0.0))))
 (let (($x434456 (or $x1699 $x1909 (<= (+ (* (- (/ 1.0 4.0)) A_0) ?x7565 ?x7245 A_1 ?x836) 0.0) $x24571)))
 (let (($x33998 (<= (+ A_3 ?x1307 ?x784 S_2 ?x1375 A_0 ?x836) 0.0)))
 (let (($x33380 (<= (+ ?x2496 (* (/ 3.0 2.0) A_0) ?x2444 ?x1375 ?x14602 ?x1018) 0.0)))
 (let (($x2271 (<= (+ L_1 ?x1018 ?x1307 (* 2.0 S_2)) 0.0)))
 (let (($x7127 (<= (+ Q_4 ?x1245 ?x986 L_0 (* 2.0 S_2) L_1) 0.0)))
 (let (($x34631 (<= (+ ?x922 ?x986 S_0 L_1 A_2) 0.0)))
 (let (($x508880 (or $x700 $x22610 $x34631 (<= (+ ?x1362 A_0 S_3 ?x775 ?x1382 ?x1659 ?x2938) 0.0))))
 (let (($x361188 (or $x700 $x21945 (<= (+ S_4 ?x1245 ?x986 ?x1359 S_0 L_1 A_2) 0.0) $x35218)))
 (let (($x3669 (<= (+ Q_4 ?x1245 ?x1380 (* 3.0 L_0) (* 4.0 S_1) L_1) 0.0)))
 (let (($x2532 (<= (+ ?x2442 ?x2494 ?x2464 ?x2495 ?x2444 L_1 ?x1018 ?x2496) 0.0)))
 (let (($x3671 (<= (+ ?x986 L_0 ?x1359 (* 2.0 S_1)) 0.0)))
 (let (($x2484 (<= (+ ?x742 ?x922 A_2) 0.0)))
 (let (($x507595 (or (<= (+ Q_4 ?x1245 ?x3871 ?x3872 (* (/ 4.0 3.0) S_3) L_1) 0.0) $x4199)))
 (let (($x7092 (or $x1699 (<= (+ (* (/ 3.0 4.0) A_0) (* (- (/ 3.0 4.0)) L_0) ?x7245 ?x1374) 0.0))))
 (let (($x351835 (or $x700 $x1718 (<= (+ ?x885 ?x1358 (* (- 3.0) L_0) S_4 ?x1351 ?x3235) 0.0) $x4199)))
 (let (($x351813 (or $x700 $x1718 (not $x2532) (<= (+ Q_4 ?x922 A_0 S_3 ?x775 ?x1382 ?x1659 A_2) 0.0))))
 (and (<= ?x784 ?x775) (or $x700 $x1718 $x3006) (or $x1699 (<= (+ ?x836 S_3 A_0 ?x1374 ?x775 L_1) 0.0)) (or $x700 $x1718 $x3244 $x4199) $x351813 (or $x700 $x1718 $x2532 $x4199) (or $x700 $x1718 (<= (+ ?x1365 ?x1373 ?x1739 S_3 ?x1369 ?x3262) 0.0) $x4199) $x351835 $x7092 (or $x1856 $x2333 $x7127) (or $x1699 (<= (+ ?x836 S_4 ?x1373 ?x1771 ?x1739 L_1) 0.0)) (or $x1699 (<= (+ ?x3880 ?x3882 ?x3869 ?x1374) 0.0)) (or $x2879 $x3671 $x4199) (or $x1699 $x2879 (<= (+ ?x2464 ?x2444 ?x7636 ?x1359) 0.0)) (or $x2048 $x2879 $x4199 (<= (+ ?x2464 ?x2444 ?x7636 ?x1359) 0.0)) (or $x1699 $x2879 $x3671) (or $x3671 $x21945) (or $x1893 $x2785) (or $x2048 (<= (+ ?x2464 ?x2444 ?x7636 ?x1359) 0.0) $x21945) $x507595 (or $x2271 $x15644) (or $x1909 $x2101 $x2271 $x33998) (or $x1909 $x2101 $x2271 $x35189) (or $x2484 $x3671) (or $x1901 $x2785 $x2879) (or $x1699 (<= (+ ?x922 S_4 A_0 ?x1374 ?x775 L_1) 0.0)) (or $x1901 $x2484 $x5364) (or $x2532 $x3577 $x4419 $x34631) (or $x1919 $x3669 $x4199 (<= (+ ?x2466 ?x14429 ?x2496 ?x986 L_0 S_1) 0.0)) $x361188 $x508880 (or $x2048 $x2879 (<= (+ ?x2464 ?x2444 ?x7636 ?x1359) 0.0) $x15644) (or $x700 $x1718 $x4021 $x4199) (or $x1909 $x2271 (not (<= (+ A_3 ?x1307 ?x836 S_2) 0.0)) $x43883) (or $x2271 $x4199 (<= (+ A_3 ?x1307 ?x836 S_2) 0.0)) (or $x1901 $x2101 $x2879 $x5364) (or $x1856 $x4199 $x7127) (or $x700 $x1718 $x4199 $x11159) (or $x700 $x1718 $x4199 (<= (+ ?x836 S_3 A_0 ?x775 ?x1382 ?x1018) 0.0)) (or $x1699 $x1909 $x2937 $x3712 $x14761) (or $x1699 $x1909 $x2912 $x3726) (or $x1909 $x2101 $x7390 $x25025) (or $x15644 $x24571) (or $x1909 $x2271 $x21945 $x35189) (or $x1909 $x21945 $x24571 $x35189) (or $x3009 $x3401 $x24571 $x33380 $x35189) (or $x1909 $x3302 $x7390 $x33380 $x35189) (or $x1909 $x7390 (<= (+ ?x784 ?x1375 A_0) 0.0) $x35189) (or $x4199 (<= (+ A_3 ?x1307 ?x836 S_2) 0.0) $x24571) (or $x1909 $x2333 $x24571) (or $x3044 $x3712 $x21945 $x38686) (or $x3401 $x3712 $x21945 $x38686) (or $x1909 $x2101 $x24571 $x33998) $x434456 (or $x2271 $x4199 $x6260) (or $x1909 $x3712 $x4419 $x38686) (or $x1699 $x1893 $x2101) (or $x1919 $x2940 $x3712 $x4199) $x1115053 (or $x2101 $x2879 (<= (+ ?x2464 ?x2444 ?x7636 ?x1359) 0.0) $x22610) (or $x700 $x11159 $x15644 $x24765) (or $x2785 $x3044 $x3712 $x38686) (or $x1909 $x2785 $x2940 $x3712 $x38686) $x368976 (or $x1909 $x2785 $x7390 $x25025) (or $x700 $x1653 $x1718 $x2815) (or $x1909 (not $x2931) $x2912 $x3726) (or $x3044 $x3619 $x4419 $x24571 $x35189) $x455059 (or $x1909 $x4419 $x7390 $x35189) $x481887 (or $x2937 $x3712 $x15644) (or $x1909 $x3712 $x21945 (<= (+ ?x986 L_0 S_1 A_1 ?x836) 0.0)) (or $x2879 $x3671 $x15644) (or $x1909 $x3712 $x21945 $x38686) $x475166 $x372850 (or $x1909 $x2785 $x7390 $x35189) (or $x700 $x1919 $x4199 $x15818 $x27065) $x477714 (or $x2785 $x5196 $x14463) (or $x2785 $x5196 $x7138 $x15483) (or $x2912 $x3712 $x15644) (or $x1901 $x2879 $x3248 $x4199) (or $x1901 $x5364 $x21945) $x1151036 (or $x2281 $x2333 $x6260) (or $x700 $x21945 $x22610 $x24711 $x32866) (or $x1653 $x1718 $x2569 $x3577) (or $x1909 $x2101 $x2940 $x4610 $x7152 $x15458) $x1165825 (or $x1699 $x1893 (<= (+ ?x39068 ?x22979 ?x2077 ?x3880 ?x3882 ?x1374 ?x83725) 0.0)) (or $x1856 $x4199 $x24571) $x384799 $x384801 $x463201 (or $x2048 $x2101 $x2879 $x7698) (or $x2785 $x2879 $x5364 $x7150 $x16004) (or $x1699 $x2879 $x3577 $x24711 $x32866) (or $x1364 $x2101 $x2879 $x7150 $x22610 $x39252) $x500787 $x506138 (or $x5364 $x7150 $x16004 $x21945) (or $x2101 $x2879 $x5364 $x7150 $x16004) (or $x700 $x21945 $x24711 $x35218 $x41284) (or $x4199 (<= (+ ?x14588 Q_4 ?x1245 ?x14560 (* (/ 3.0 2.0) S_3)) 0.0)) (or $x2879 $x3577 $x15644 $x24711 $x32866 $x41284) (or $x1909 $x2101 $x3009 $x3401 $x34727 $x35332 $x143939) $x520909 (or $x1377 $x1699 $x2101 $x14463) (or $x1335 $x1909 $x2101 $x7152 $x13962 $x28764 $x34727 $x39270) (or $x1909 $x2101 $x14696 $x34727 $x35332 $x39425 $x143939) (or $x1909 $x2785 $x2937 $x4610 $x7152 $x15458) (or $x1909 $x2101 $x5547 $x7152 $x10572 $x13079) (or $x1909 $x2785 $x5547 $x7152 $x10572 $x13079) $x1121824 (or $x1909 $x2484 $x15458 $x143939) $x1113386 (or $x3577 $x15644 $x43502 $x104075) (or $x4199 (<= (+ ?x2466 ?x14429 ?x2452 S_3 L_1) 0.0)) (or $x700 $x1680 $x4199 $x7698 $x55441) $x1115237 $x487275 (or $x1919 $x2912 $x3726 $x4199) (or $x1909 $x1927 $x2101 $x14696 $x20068 $x39425) $x1128613 (or $x2101 $x2879 $x3577 $x24711 $x32866 $x41284) (or $x1653 $x1718 $x3577 $x15378 $x40248) $x411713 (or $x2101 $x2937 $x4610 $x5674 $x7152) (or $x1335 $x1909 $x2101 $x5674 $x7152 $x13962 $x28764 $x33360) $x446497 $x1118331 (or $x2281 $x4199 $x6260) (or (not $x3044) $x3042 $x3269 $x4610 $x5674 $x7152) (or $x3260 $x3269 $x3845 $x4610 $x5674 $x7152) (or $x700 $x1702 $x4199 $x6260) $x1145052 (or $x700 $x4199 $x7698 (not $x30754)) (or $x700 $x7698 $x11385 $x30754) (or $x700 $x1718 $x4199 $x15378 $x40248) $x1148166 (or $x1722 $x2569 $x4199) (or $x1919 $x2937 $x3042 $x3712 $x33360) (or $x1919 $x2937 $x3260 $x3712 $x3845) (or $x1919 $x2937 $x3712 $x4199) $x438774 (or $x700 $x1697 $x4199 $x58221) $x456809 (or $x1653 $x1718 $x3577 $x6994) $x1142993 (or $x700 $x4199 (<= ?x6774 0.0) $x7698) $x1137606 (or $x3577 $x4199 $x11159 $x11385) (or $x3577 $x4199 $x6260 $x7435) $x1135515 (or $x3577 $x4199 $x6994 $x13128) (or $x2933 $x4199 $x4610 $x5017 $x7148 $x7152 $x13035) $x1130925 (or $x3302 $x4199 $x4610 $x5680 $x7148 $x7152 $x13035) $x1142144 $x1134167 (or $x1909 $x1937 $x2931 $x3302 $x4199 $x10572 $x13079) $x1141502 $x1152950 $x1134274 (or $x1909 $x2937 $x3042 $x3712 $x14761) (or $x700 $x1697 $x30129 $x57509) (or $x3577 $x22474 $x30129 $x43932 $x57509) (or $x3577 $x4199 $x22474 $x43932 $x58221) $x1172319 (or $x3248 $x4199 $x5364 $x7144 $x7150 $x16004) (or $x2933 $x3260 $x3269 $x3845 $x4610 $x7152 $x15458) (or $x1909 $x2888 $x3269 $x7152 $x13035 $x15458 $x40203) (or $x2931 $x2933 $x3011 $x3182 $x3302) (or $x1909 $x2888 $x2931 $x3302 $x7183 $x13079) (or $x2937 $x3302 $x4199 $x4610 $x5674 $x7183) (or $x3011 $x3182 $x3577 $x15378 $x40248 $x44978 $x58345) (or $x3269 $x4199 $x4610 $x15458 $x33329 $x40203) (or $x3269 $x4199 $x4610 $x7175 $x15458 $x40203) (or $x2940 $x3269 $x7152 $x15458 $x24625 $x143483) (or $x3044 $x3269 $x4610 $x15458 $x33360 $x40203) (or $x3248 $x4199 $x5364 $x16004 $x85161) (or $x3042 $x3248 $x5364 $x7150 $x16004 $x33360) (or $x2879 $x3009 $x4199 $x5364 $x7183) $x1141480 (or $x700 $x4199 $x15378 $x40248 $x44978 $x58345) (or $x1909 $x2937 $x3302 $x4199 $x5547 $x7152) $x457859 $x453466 (or $x2667 $x5547 $x7152 $x10572 $x13079 $x24625 $x143483) (or $x1909 $x3260 $x3269 $x3845 $x5547 $x143939) $x1417 (<= (+ ?x1375 S_0) 0.0) (<= (+ S_0 L_0 ?x986) 0.0) (<= (+ L_1 ?x1018 S_1) 0.0) (<= (+ ?x922 S_3 L_1) 0.0) (<= (+ Q_4 ?x1245 S_4 L_1) 0.0) (<= (+ L_1 S_2 ?x836) 0.0) (<= (+ ?x1359 S_2) 0.0) (<= (+ ?x1307 S_3) 0.0) (<= (+ ?x1374 S_1) 0.0))))))))))))))))))))))))))))))))))))))))))))))))))))))))))))))))))))))))))))))))))))))))))))))))))))))))))))))))))))))))))))))))))))))))))))))))))))))))))))))))))))))))))))))))))))))))))))))))))))))))))))))))))))))))))))))))))))))))))))))))))))))))))))))))))))))))))))))))))))))))))))))))))))))))))))))))))))))))))
(check-sat)
